unsat
(:binary-propagations  35
 :conflicts            1
 :final-checks         1
 :max-generation       1
 :max-memory           23.44
 :memory               20.93
 :mk-bool-var          685
 :mk-clause            235
 :mk-clause-binary     758
 :num-allocs           6798814
 :num-checks           1
 :propagations         35
 :quant-instantiations 100
 :restarts             1
 :rlimit-count         79119
 :time                 0.02)
